100
1000
626
611
609
604
598
592
586
584
578
576
574
568
557
553
549
541
541
533
533
529
527
525
524
517
514
511
507
504
499
496
492
488
477
476
471
459
456
442
436
425
421
419
401
388
386
362
358
354
352
345
322
322
317
298
293
280
262
261
258
249
247
241
238
233
219
209
205
204
203
190
186
177
174
174
164
163
154
153
153
133
133
126
122
121
120
119
119
113
110
101
97
90
70
68
66
59
52
45
39
37
